(set-info :source |printed by MathSAT|)
(declare-fun |!{N}| () Int)
(declare-fun |!{N}.next| () Int)
(declare-fun |!{i}| () Int)
(declare-fun |!{i}.next| () Int)
(declare-fun |!{x}| () Int)
(declare-fun |!{x}.next| () Int)
(declare-fun |!{a.1}| () (Array Int Int))
(declare-fun |!{a.1}.next| () (Array Int Int))
(declare-fun |!pc[0]| () Bool)
(declare-fun |!pc[0].next| () Bool)
(declare-fun |!pc[1]| () Bool)
(declare-fun |!pc[1].next| () Bool)
(declare-fun |!pc[2]| () Bool)
(declare-fun |!pc[2].next| () Bool)
(declare-fun |%{x}#1| () Int)
(declare-fun |%{a.1}#1| () (Array Int Int))
(declare-fun nd<0> () Int)
(define-fun .def_29 () Bool (! |!pc[2]| :next |!pc[2].next|))
(define-fun .def_34 () Bool (not .def_29))
(define-fun .def_27 () Bool (! |!pc[1]| :next |!pc[1].next|))
(define-fun .def_32 () Bool (not .def_27))
(define-fun .def_25 () Bool (! |!pc[0]| :next |!pc[0].next|))
(define-fun .def_31 () Bool (not .def_25))
(define-fun .def_33 () Bool (and .def_31 .def_32))
(define-fun .def_35 () Bool (! (and .def_33 .def_34) :init true))
(define-fun .def_131 () Bool (and .def_25 .def_32))
(define-fun .def_149 () Bool (and .def_34 .def_131))
(define-fun .def_53 () Bool (not |!pc[1].next|))
(define-fun .def_54 () Bool (and |!pc[0].next| .def_53))
(define-fun .def_133 () Bool (and |!pc[2].next| .def_54))
(define-fun .def_152 () Bool (and .def_133 .def_149))
(define-fun .def_8 () Int (! |!{N}| :next |!{N}.next|))
(define-fun .def_69 () Bool (= .def_8 |!{N}.next|))
(define-fun .def_46 () Bool (= |!{i}.next| 0))
(define-fun .def_145 () Bool (and .def_46 .def_69))
(define-fun .def_12 () Int (! |!{x}| :next |!{x}.next|))
(define-fun .def_73 () Bool (= .def_12 |!{x}.next|))
(define-fun .def_146 () Bool (and .def_73 .def_145))
(define-fun .def_14 () (Array Int Int) (! |!{a.1}| :next |!{a.1}.next|))
(define-fun .def_75 () Bool (= .def_14 |!{a.1}.next|))
(define-fun .def_147 () Bool (and .def_75 .def_146))
(define-fun .def_10 () Int (! |!{i}| :next |!{i}.next|))
(define-fun .def_114 () Bool (<= .def_8 .def_10))
(define-fun .def_148 () Bool (and .def_114 .def_147))
(define-fun .def_153 () Bool (and .def_148 .def_152))
(define-fun .def_55 () Bool (not |!pc[2].next|))
(define-fun .def_56 () Bool (and .def_54 .def_55))
(define-fun .def_150 () Bool (and .def_56 .def_149))
(define-fun .def_141 () (Array Int Int) (store .def_14 .def_10 42))
(define-fun .def_142 () Bool (= |!{a.1}.next| .def_141))
(define-fun .def_119 () Int (* (- 1) |!{i}.next|))
(define-fun .def_120 () Int (+ .def_10 .def_119))
(define-fun .def_121 () Bool (= .def_120 (- 1)))
(define-fun .def_122 () Bool (and .def_69 .def_121))
(define-fun .def_123 () Bool (and .def_73 .def_122))
(define-fun .def_143 () Bool (and .def_123 .def_142))
(define-fun .def_115 () Bool (not .def_114))
(define-fun .def_144 () Bool (and .def_115 .def_143))
(define-fun .def_151 () Bool (and .def_144 .def_150))
(define-fun .def_154 () Bool (or .def_151 .def_153))
(define-fun .def_132 () Bool (and .def_29 .def_131))
(define-fun .def_97 () Bool (not |!pc[0].next|))
(define-fun .def_98 () Bool (and |!pc[1].next| .def_97))
(define-fun .def_99 () Bool (and .def_55 .def_98))
(define-fun .def_136 () Bool (and .def_99 .def_132))
(define-fun .def_127 () Bool (= |!{x}.next| 0))
(define-fun .def_71 () Bool (= .def_10 |!{i}.next|))
(define-fun .def_78 () Bool (and .def_69 .def_71))
(define-fun .def_128 () Bool (and .def_78 .def_127))
(define-fun .def_129 () Bool (and .def_75 .def_128))
(define-fun .def_130 () Bool (and .def_114 .def_129))
(define-fun .def_137 () Bool (and .def_130 .def_136))
(define-fun .def_134 () Bool (and .def_132 .def_133))
(define-fun .def_117 () (Array Int Int) (store .def_14 .def_10 43))
(define-fun .def_124 () Bool (= |!{a.1}.next| .def_117))
(define-fun .def_125 () Bool (and .def_123 .def_124))
(define-fun .def_126 () Bool (and .def_115 .def_125))
(define-fun .def_135 () Bool (and .def_126 .def_134))
(define-fun .def_138 () Bool (or .def_135 .def_137))
(define-fun .def_109 () Bool (and .def_25 .def_27))
(define-fun .def_110 () Bool (and .def_34 .def_109))
(define-fun .def_111 () Bool (and .def_99 .def_110))
(define-fun .def_80 () Int (* (- 1) |!{x}.next|))
(define-fun .def_81 () Int (+ .def_12 .def_80))
(define-fun .def_82 () Bool (= .def_81 (- 1)))
(define-fun .def_83 () Bool (and .def_78 .def_82))
(define-fun .def_84 () Bool (and .def_75 .def_83))
(define-fun .def_112 () Bool (and .def_84 .def_111))
(define-fun .def_103 () Bool (and .def_53 .def_97))
(define-fun .def_104 () Bool (and |!pc[2].next| .def_103))
(define-fun .def_91 () Bool (and .def_27 .def_31))
(define-fun .def_92 () Bool (and .def_34 .def_91))
(define-fun .def_105 () Bool (and .def_92 .def_104))
(define-fun .def_59 () Bool (<= .def_8 .def_12))
(define-fun .def_87 () Bool (and .def_59 .def_69))
(define-fun .def_88 () Bool (and .def_71 .def_87))
(define-fun .def_89 () Bool (and .def_73 .def_88))
(define-fun .def_90 () Bool (and .def_75 .def_89))
(define-fun .def_106 () Bool (and .def_90 .def_105))
(define-fun .def_100 () Bool (and .def_92 .def_99))
(define-fun .def_61 () Int (select .def_14 .def_12))
(define-fun .def_63 () Bool (= .def_61 43))
(define-fun .def_85 () Bool (and .def_63 .def_84))
(define-fun .def_60 () Bool (not .def_59))
(define-fun .def_86 () Bool (and .def_60 .def_85))
(define-fun .def_101 () Bool (and .def_86 .def_100))
(define-fun .def_93 () Bool (and |!pc[0].next| |!pc[1].next|))
(define-fun .def_94 () Bool (and .def_55 .def_93))
(define-fun .def_95 () Bool (and .def_92 .def_94))
(define-fun .def_64 () Bool (not .def_63))
(define-fun .def_70 () Bool (and .def_64 .def_69))
(define-fun .def_72 () Bool (and .def_70 .def_71))
(define-fun .def_74 () Bool (and .def_72 .def_73))
(define-fun .def_76 () Bool (and .def_74 .def_75))
(define-fun .def_77 () Bool (and .def_60 .def_76))
(define-fun .def_96 () Bool (and .def_77 .def_95))
(define-fun .def_102 () Bool (or .def_96 .def_101))
(define-fun .def_107 () Bool (or .def_102 .def_106))
(define-fun .def_57 () Bool (and .def_35 .def_56))
(define-fun .def_50 () Bool (= |!{a.1}.next| |%{a.1}#1|))
(define-fun .def_48 () Bool (= |!{x}.next| |%{x}#1|))
(define-fun .def_45 () Bool (= |!{N}.next| nd<0>))
(define-fun .def_47 () Bool (and .def_45 .def_46))
(define-fun .def_49 () Bool (and .def_47 .def_48))
(define-fun .def_51 () Bool (and .def_49 .def_50))
(define-fun .def_43 () Bool (<= nd<0> 0))
(define-fun .def_44 () Bool (not .def_43))
(define-fun .def_52 () Bool (and .def_44 .def_51))
(define-fun .def_58 () Bool (and .def_52 .def_57))
(define-fun .def_108 () Bool (or .def_58 .def_107))
(define-fun .def_113 () Bool (or .def_108 .def_112))
(define-fun .def_139 () Bool (or .def_113 .def_138))
(define-fun .def_155 () Bool (! (or .def_139 .def_154) :trans true))
(define-fun .def_156 () Bool (! (not .def_110) :invar-property 0))
(assert true)
